n_res = 4;
rcap = [23, 28, 55, 59];
rtype = [1, 1, 2, 2];
n_tasks = 12;
modes = [ {1, 2, 3}, {4, 5, 6}, {7, 8, 9}, {10, 11, 12}, {13, 14, 15}, {16, 17, 18}, {19, 20, 21}, {22, 23, 24}, {25, 26, 27}, {28, 29, 30}, {31, 32, 33}, {34, 35, 36} ];
succ = [ {4, 7, 8}, {6, 10, 12}, {5, 6, 9}, {5, 6}, {11, 12}, {11}, {9, 10, 12}, {9, 10}, {11}, {}, {}, {} ];
n_opt = 36;
dur = [2, 3, 6, 2, 3, 6, 3, 3, 5, 1, 3, 7, 1, 1, 5, 2, 7, 8, 1, 3, 7, 8, 8, 10, 1, 5, 9, 2, 7, 8, 5, 6, 10, 1, 2, 5];
rreq = [|  0,  0,  0,  0,  0,  0,  5,  0,  4,  3,  0,  0,  6,  0,  7,  9,  0,  6,  0,  4,  0,  9,  0,  0,  0,  0,  0,  0,  0, 10,  9,  7,  4,  9,  0,  0
        |  4,  4,  1,  9,  8,  7,  0,  9,  0,  0, 10, 10,  0,  8,  0,  0,  7,  0,  8,  0,  8,  0,  8,  7,  9,  5,  2,  8,  6,  0,  0,  0,  0,  0,  8,  8
        | 10,  9,  9,  4,  2,  1,  1,  1,  1,  3,  2,  2,  5,  5,  4,  8,  5,  4,  4,  3,  3,  4,  4,  3,  5,  5,  4,  9,  8,  4,  6,  6,  1,  8,  8,  7
        |  3,  2,  2,  6,  5,  5,  5,  5,  4,  5,  4,  3,  7,  7,  6,  2,  1,  1,  9,  6,  5,  5,  5,  3,  8,  6,  6, 10,  8,  4,  7,  6,  6,  4,  3,  2 |];
